% demand
num_movements = 27;
loading_factor = [850, 1050, 1700, 1100, 1250, 1500, 1150, 1450, 800, 1450, 1100, 950, 1000, 1750, 1500, 1550, 1100, 900, 850, 1800, 1450, 1250, 1500, 1550, 1150, 950, 1600];
pickup_time = [0, 0, 0, 0, 1, 1, 1, 1, 1, 3, 4, 4, 4, 4, 4, 5, 5, 5, 5, 6, 7, 8, 8, 9, 9, 9, 9];
delivery_time = [3, 1, 1, 1, 3, 3, 3, 3, 3, 4, 8, 5, 5, 5, 5, 6, 6, 8, 6, 9, 8, 11, 9, 11, 11, 11, 11];

% transporter definition
total_capacity = 7000;
num_decks = 3;
capacity = [3000, 1000, 3000];

% ways out of decks
num_ways_out = 1;
paths_out = array3d(decks, ways_out, decks, [
% ways out of deck d1
2, 3, 0, 

% ways out of deck d2
3, 0, 0, 

% ways out of deck d3
0, 0, 0,	

]);

